
  32    4
  10   10   10   10

   0   0   0   0   0   1 2 
  10   0   1   1   1   1 3 
   5   0   4   4   3   1 4 
   3   1   2   0   7   1 5 
   1   0   2   4   4   1 6 
   8   6   4   0   3   1 7 
   7   0   4   6   5   1 8 
   8   0   5   8   6   1 9 
   8   2   0   3   6   1 10 
   8   5   0   2   4   1 11 
   7   0   4   4   5   1 12 
   2   0   4   5   4   1 13 
   4   4   4   0   5   1 14 
   2   7   0   5   2   2 20 15 
   3   3   0   2   4   1 16 
   3   4   4   0   4   1 17 
   8   1   0   3   5   1 18 
  10   4   0   5   3   2 28 19 
   4   0   5   4   4   1 21 
   2   8   7   3   0   1 21 
   9   5   3   0   5   1 22 
   1   6   6   0   2   1 23 
   5   0   4   4   4   1 24 
   2   4   3   6   0   1 25 
   6   4   2   0   2   1 26 
   1   2   0   2   5   1 27 
   2   0   5   6   2   2 31 29 
   7   3   6   4   0   2 31 30 
   4   4   5   4   0   1 30 
   2   0   6   3   4   1 32
   7   3   2   0   5   1 32
   0   0   0   0   0   0 
